LengthSchedulingHorizon=1162;
nAttributes=5;
SetupCosts=[[0, 0, 0, 0, 0], [18, 7, 25, 15, 20], [7, 16, 2, 25, 17], [25, 2, 4, 23, 2], [15, 25, 23, 25, 16], [20, 17, 2, 16, 18]];
SetupTimes=[[0, 0, 0, 0, 0], [10, 20, 8, 8, 10], [20, 20, 11, 10, 6], [8, 11, 3, 8, 11], [8, 10, 8, 17, 10], [10, 6, 11, 10, 17]];
nMachines=5;
MinCap=[0, 0, 0, 0, 0];
MaxCap=[20, 20, 20, 20, 20];

initState=[5, 5, 3, 1, 3];
nShifts=4;
ShiftStartTimes = [[0, 0, 0, 47], [0, 126, 352, 785], [41, 590, 950, 983], [174, 562, 596, 738], [0, 0, 150, 275]];
ShiftEndTimes = [[0, 0, 0, 1096], [0, 324, 755, 1091], [495, 914, 977, 1132], [470, 596, 721, 1103], [0, 0, 257, 961]];
nJobs=10;
EligibleMachines = [{1, 2, 4, 5}, {2, 4, 5}, {1, 2, 3, 5}, {1, 2, 4}, {1, 2, 3, 4}, {1, 4, 5}, {1, 2, 4}, {1, 3}, {2, 3, 4}, {1, 2, 4, 5}];
EarliestStart=[198, 39, 176, 115, 17, 230, 190, 142, 26, 165];
LatestEnd=[266, 67, 319, 248, 92, 238, 277, 220, 89, 211];
MinTime=[63, 20, 79, 70, 60, 7, 74, 64, 32, 30];
MaxTime=[100, 100, 100, 100, 100, 100, 100, 100, 100, 100];
JobSize=[12, 13, 7, 18, 11, 20, 9, 4, 7, 10];
Attribute=[1, 4, 4, 4, 5, 5, 3, 1, 2, 1];

upper_bound_integer_objective=5000;
mult_factor_total_runtime=4;
mult_factor_finished_toolate=200;
mult_factor_total_setuptimes=0;
mult_factor_total_setupcosts=4;
running_time_bound=499;
min_duration=7;
max_duration=79;
max_setup_time=20;
max_setup_cost=25;
